c CNF file corresponding to a (partial) station packing problem.
p cnf 6683 171
6671 6672 6673 6674 6675 6676 6677 6678 6679 6680 6681 6682 6683 0
-6671 -6672 0
-6671 -6673 0
-6671 -6674 0
-6671 -6675 0
-6671 -6676 0
-6671 -6677 0
-6671 -6678 0
-6671 -6679 0
-6671 -6680 0
-6671 -6681 0
-6671 -6682 0
-6671 -6683 0
-6672 -6673 0
-6672 -6674 0
-6672 -6675 0
-6672 -6676 0
-6672 -6677 0
-6672 -6678 0
-6672 -6679 0
-6672 -6680 0
-6672 -6681 0
-6672 -6682 0
-6672 -6683 0
-6673 -6674 0
-6673 -6675 0
-6673 -6676 0
-6673 -6677 0
-6673 -6678 0
-6673 -6679 0
-6673 -6680 0
-6673 -6681 0
-6673 -6682 0
-6673 -6683 0
-6674 -6675 0
-6674 -6676 0
-6674 -6677 0
-6674 -6678 0
-6674 -6679 0
-6674 -6680 0
-6674 -6681 0
-6674 -6682 0
-6674 -6683 0
-6675 -6676 0
-6675 -6677 0
-6675 -6678 0
-6675 -6679 0
-6675 -6680 0
-6675 -6681 0
-6675 -6682 0
-6675 -6683 0
-6676 -6677 0
-6676 -6678 0
-6676 -6679 0
-6676 -6680 0
-6676 -6681 0
-6676 -6682 0
-6676 -6683 0
-6677 -6678 0
-6677 -6679 0
-6677 -6680 0
-6677 -6681 0
-6677 -6682 0
-6677 -6683 0
-6678 -6679 0
-6678 -6680 0
-6678 -6681 0
-6678 -6682 0
-6678 -6683 0
-6679 -6680 0
-6679 -6681 0
-6679 -6682 0
-6679 -6683 0
-6680 -6681 0
-6680 -6682 0
-6680 -6683 0
-6681 -6682 0
-6681 -6683 0
-6682 -6683 0
1 2 3 4 5 6 7 8 9 10 11 12 13 14 0
-1 -2 0
-1 -3 0
-1 -4 0
-1 -5 0
-1 -6 0
-1 -7 0
-1 -8 0
-1 -9 0
-1 -10 0
-1 -11 0
-1 -12 0
-1 -13 0
-1 -14 0
-2 -3 0
-2 -4 0
-2 -5 0
-2 -6 0
-2 -7 0
-2 -8 0
-2 -9 0
-2 -10 0
-2 -11 0
-2 -12 0
-2 -13 0
-2 -14 0
-3 -4 0
-3 -5 0
-3 -6 0
-3 -7 0
-3 -8 0
-3 -9 0
-3 -10 0
-3 -11 0
-3 -12 0
-3 -13 0
-3 -14 0
-4 -5 0
-4 -6 0
-4 -7 0
-4 -8 0
-4 -9 0
-4 -10 0
-4 -11 0
-4 -12 0
-4 -13 0
-4 -14 0
-5 -6 0
-5 -7 0
-5 -8 0
-5 -9 0
-5 -10 0
-5 -11 0
-5 -12 0
-5 -13 0
-5 -14 0
-6 -7 0
-6 -8 0
-6 -9 0
-6 -10 0
-6 -11 0
-6 -12 0
-6 -13 0
-6 -14 0
-7 -8 0
-7 -9 0
-7 -10 0
-7 -11 0
-7 -12 0
-7 -13 0
-7 -14 0
-8 -9 0
-8 -10 0
-8 -11 0
-8 -12 0
-8 -13 0
-8 -14 0
-9 -10 0
-9 -11 0
-9 -12 0
-9 -13 0
-9 -14 0
-10 -11 0
-10 -12 0
-10 -13 0
-10 -14 0
-11 -12 0
-11 -13 0
-11 -14 0
-12 -13 0
-12 -14 0
-13 -14 0
